NAME : rnd21_20.tsp
TYPE : TSP
DIMENSION : 20
EDGE_WEIGHT_TYPE : EUC_2D
NODE_COORD_SECTION
1 976 135
2 590 62
3 625 458
4 790 532
5 529 53
6 859 575
7 685 487
8 529 815
9 249 877
10 937 574
11 697 244
12 4 654
13 805 620
14 869 756
15 571 541
16 929 810
17 116 759
18 126 580
19 666 30
20 687 114
